Data path: /scratch/opt/lxu/CFLG/benchmarks/tree_A
Instance: treeA.300.30
Result path: /scratch/opt/lxu/CFLG/results/tree_A
Solver: Gurobi
Time limit: 7200
Formulation: LEFPA
Cover: Small
julia --project=. src/main.jl /scratch/opt/lxu/CFLG/benchmarks/tree_A treeA.300.30 /scratch/opt/lxu/CFLG/results/tree_A Gurobi 7200 LEFPA Small
The latest version of Julia in the `release` channel is 1.11.6+0.x64.linux.gnu. You currently have `1.11.4+0.x64.linux.gnu` installed. Run:

  juliaup update

in your terminal shell to install Julia 1.11.6+0.x64.linux.gnu and update the `release` channel to that version.
/scratch/opt/lxu/CFLG/benchmarks/tree_A Gurobi 7200.0 /scratch/opt/lxu/CFLG/results/tree_A treeA.300.30 LEFPA Small
/scratch/opt/lxu/CFLG/benchmarks/tree_A/treeA.300.30

 read graph
data loaded


after absorb:190 300

max_piece:30
problem_graph/original graph: node: 190/300 edge: 219/329 dlt: 0.3798971386151679 break_avg_len: 2.282852211952333 break_max_len: 10.68450082426624Vbar/V, Ebar/E(87, 190, 116, 219)
Set parameter TokenServer to value "solice01.zib.de"
Set parameter Threads to value 1
Set parameter OutputFlag to value 1
Gurobi Optimizer version 12.0.1 build v12.0.1rc0 (linux64 - "Debian GNU/Linux 12 (bookworm)")

CPU model: Intel(R) Xeon(R) Gold 5122 CPU @ 3.60GHz, instruction set [SSE2|AVX|AVX2|AVX512]
Thread count: 8 physical cores, 16 logical processors, using up to 1 threads

Non-default parameters:
Threads  1

Optimize a model with 317 rows, 519 columns and 865 nonzeros
Model fingerprint: 0xce7a9ef1
Coefficient statistics:
  Matrix range     [1e+00, 1e+00]
  Objective range  [1e+00, 1e+00]
  Bounds range     [1e+00, 1e+00]
  RHS range        [1e+00, 1e+00]
Presolve removed 116 rows and 116 columns
Presolve time: 0.00s
Presolved: 201 rows, 403 columns, 633 nonzeros

Iteration    Objective       Primal Inf.    Dual Inf.      Time
       0    1.3500000e+02   5.200000e+01   0.000000e+00      0s
      92    8.7000000e+01   0.000000e+00   0.000000e+00      0s

Solved in 92 iterations and 0.00 seconds (0.00 work units)
Optimal objective  8.700000000e+01

User-callback calls 155, time in user-callback 0.00 sec
elapsed CPU time: 1.04308 seconds
Set parameter TokenServer to value "solice01.zib.de"
Set parameter Threads to value 1
Set parameter OutputFlag to value 1
Set parameter MIPGap to value 0.0001
Set parameter TimeLimit to value 7198.95692

 more cuts: false 0.3798971386151679 false
is_attach:trueformulation:LEFPA116 57 57

 model loaded

Gurobi Optimizer version 12.0.1 build v12.0.1rc0 (linux64 - "Debian GNU/Linux 12 (bookworm)")

CPU model: Intel(R) Xeon(R) Gold 5122 CPU @ 3.60GHz, instruction set [SSE2|AVX|AVX2|AVX512]
Thread count: 8 physical cores, 16 logical processors, using up to 1 threads

Non-default parameters:
TimeLimit  7198.95692
Threads  1

Optimize a model with 2782 rows, 1664 columns and 5726 nonzeros
Model fingerprint: 0x8d75af1e
Variable types: 490 continuous, 1174 integer (1174 binary)
Coefficient statistics:
  Matrix range     [2e-03, 1e+00]
  Objective range  [1e+00, 1e+00]
  Bounds range     [2e-03, 1e+01]
  RHS range        [2e-03, 1e+01]
Presolve removed 1933 rows and 851 columns
Presolve time: 0.02s
Presolved: 849 rows, 813 columns, 2597 nonzeros
Variable types: 344 continuous, 469 integer (469 binary)
Found heuristic solution: objective 681.0000000
Found heuristic solution: objective 677.0000000

Root relaxation: objective 6.086775e+02, 835 iterations, 0.01 seconds (0.01 work units)

    Nodes    |    Current Node    |     Objective Bounds      |     Work
 Expl Unexpl |  Obj  Depth IntInf | Incumbent    BestBd   Gap | It/Node Time

     0     0  608.67751    0  284  677.00000  608.67751  10.1%     -    0s
H    0     0                     659.0000000  608.67751  7.64%     -    0s
     0     0  626.59216    0  263  659.00000  626.59216  4.92%     -    0s
H    0     0                     658.0000000  626.59416  4.77%     -    0s
     0     0  628.24769    0  255  658.00000  628.24769  4.52%     -    0s
     0     0  628.28206    0  244  658.00000  628.28206  4.52%     -    0s
     0     0  628.28255    0  250  658.00000  628.28255  4.52%     -    0s
     0     0  631.70742    0  227  658.00000  631.70742  4.00%     -    0s
H    0     0                     656.0000000  631.72149  3.70%     -    0s
H    0     0                     655.0000000  631.72149  3.55%     -    0s
H    0     0                     654.0000000  631.72149  3.41%     -    0s
     0     0  632.10493    0  228  654.00000  632.10493  3.35%     -    0s
     0     0  632.26645    0  209  654.00000  632.26645  3.32%     -    0s
     0     0  632.28202    0  232  654.00000  632.28202  3.32%     -    0s
     0     0  632.28304    0  233  654.00000  632.28304  3.32%     -    0s
     0     0  633.78532    0  229  654.00000  633.78532  3.09%     -    0s
     0     0  633.85163    0  221  654.00000  633.85163  3.08%     -    0s
     0     0  634.08344    0  242  654.00000  634.08344  3.05%     -    0s
     0     0  634.08646    0  237  654.00000  634.08646  3.04%     -    0s
     0     0  634.68651    0  213  654.00000  634.68651  2.95%     -    0s
     0     0  635.19396    0  211  654.00000  635.19396  2.88%     -    0s
     0     0  635.19542    0  224  654.00000  635.19542  2.88%     -    0s
     0     0  635.45292    0  215  654.00000  635.45292  2.84%     -    0s
H    0     0                     650.0000000  635.95292  2.16%     -    0s
     0     0  635.95292    0  210  650.00000  635.95292  2.16%     -    0s
     0     0  635.95292    0  212  650.00000  635.95292  2.16%     -    0s
     0     0  635.95292    0  199  650.00000  635.95292  2.16%     -    0s
     0     0  635.95292    0  127  650.00000  635.95292  2.16%     -    0s
H    0     0                     648.0000000  635.95292  1.86%     -    0s
     0     2  636.08587    0  110  648.00000  636.08587  1.84%     -    0s
H  299   259                     647.0000000  636.54319  1.62%  13.0    0s
H  326   246                     646.0000000  636.54319  1.46%  12.5    0s
H 1047   597                     645.0000000  640.51472  0.70%  35.7    3s
H 1447   477                     644.0000000  640.60333  0.53%  32.9    4s
H 1673   178                     643.0000000  640.68172  0.36%  31.7    4s
  1961   160     cutoff   23       643.00000  640.88995  0.33%  33.9    5s

Cutting planes:
  Learned: 5
  Gomory: 30
  Cover: 222
  Implied bound: 22
  Clique: 7
  MIR: 150
  Mixing: 20
  StrongCG: 4
  Flow cover: 393
  GUB cover: 12
  Zero half: 10
  RLT: 21
  Relax-and-lift: 11
  BQP: 5

Explored 4172 nodes (162717 simplex iterations) in 9.33 seconds (6.30 work units)
Thread count was 1 (of 16 available processors)

Solution count 10: 643 644 645 ... 656

Optimal solution found (tolerance 1.00e-04)
Warning: max constraint violation (1.0000e-06) exceeds tolerance
Best objective 6.430000000000e+02, best bound 6.430000000000e+02, gap 0.0000%

User-callback calls 12712, time in user-callback 0.01 sec

 sepatime0 0 0
643.0
Stat(MathOptInterface.OPTIMAL, 643.0, 643.0, 0.0, 0.0, 1.04308, 9.326035976409912, 4172, Main.CFLG.LEFPA, "", #undef)
